Maximize
F 

Subject to
F - 3.0y234 - 6.0y148 - 3.0y222 - 12.0y71 - 3.0y144 - 12.0y267 - 3.0y39 - 9.0y240 - 9.0y21 - 9.0y248 - 12.0y298 - 6.0y101 - 6.0y225 - 12.0y177 = 0

x156x177x2 
<= 1
x256x222x2 + x256x144x2 + x256x39x2 + x256x240x2 + x256x248x2 + x256x298x2 + x256x225x2 + x256x177x2 
<= 1
x156x267x3 + x156x21x3 
<= 1

- x234x148x1 - x234x177x1 
= 0


- x234x267x3 
= 0

x234x148x1 
- x148x0x1
- x148x177x1 
= 0




x256x222x2 
- x222x0x2
- x222x144x2 - x222x240x2 - x222x298x2 - x222x225x2 
= 0



- x71x177x1 
= 0




x256x144x2 + x222x144x2 
- x144x0x2
- x144x240x2 - x144x298x2 - x144x225x2 
= 0




x156x267x3 + x234x267x3 
- x267x0x3

= 0


x256x39x2 
- x39x0x2

= 0



x256x240x2 + x222x240x2 + x144x240x2 
- x240x0x2
- x240x298x2 - x240x225x2 
= 0



- x21x101x1 
= 0

x156x21x3 
- x21x0x3

= 0


x256x248x2 
- x248x0x2

= 0



x256x298x2 + x222x298x2 + x144x298x2 + x240x298x2 
- x298x0x2
- x298x225x2 
= 0


x21x101x1 
- x101x0x1

= 0




x256x225x2 + x222x225x2 + x144x225x2 + x240x225x2 + x298x225x2 
- x225x0x2

= 0


x234x177x1 + x148x177x1 + x71x177x1 
- x177x0x1

= 0
x156x177x2 + x256x177x2 
- x177x0x2

= 0


1y234 = 0
1y234 = 0
2y148 - x234x148x1 = 0
1y222 - x256x222x2 = 0
1y222 = 0
1y71 = 0
1y71 = 0
2y144 - x256x144x2 - x222x144x2 = 0
2y267 - x156x267x3 - x234x267x3 = 0
1y39 = 0
1y39 - x256x39x2 = 0
1y240 = 0
1y240 - x256x240x2 - x222x240x2 - x144x240x2 = 0
1y21 = 0
1y21 - x156x21x3 = 0
1y248 - x256x248x2 = 0
1y248 = 0
2y298 - x256x298x2 - x222x298x2 - x144x298x2 - x240x298x2 = 0
2y101 - x21x101x1 = 0
2y225 - x256x225x2 - x222x225x2 - x144x225x2 - x240x225x2 - x298x225x2 = 0
1y177 - x234x177x1 - x148x177x1 - x71x177x1 = 0
1y177 - x156x177x2 - x256x177x2 = 0

s156 - s267 + 9.245379z156z267z3 <= 8.18
s156 - s21 + 9.358836z156z21z3 <= 8.18
s156 - s177 + 9.438371z156z177z2 <= 8.18
s256 - s222 + 8.789514z256z222z2 <= 7.34
s256 - s144 + 8.798134z256z144z2 <= 7.34
s256 - s39 + 8.828378z256z39z2 <= 7.34
s256 - s240 + 8.799731z256z240z2 <= 7.34
s256 - s248 + 8.854095z256z248z2 <= 7.34
s256 - s298 + 8.801805z256z298z2 <= 7.34
s256 - s225 + 8.806022z256z225z2 <= 7.34
s256 - s177 + 8.647676z256z177z2 <= 7.34
s234 - s148 + 10.228856z234z148z1 <= 9.21
s234 - s267 + 10.238284z234z267z3 <= 9.21
s234 - s177 + 10.424684z234z177z1 <= 9.21
s148 - s177 + 10.426072z148z177z1 <= 9.23
s222 - s144 + 10.289428z222z144z2 <= 9.28
s222 - s240 + 10.294907z222z240z2 <= 9.28
s222 - s298 + 10.308284z222z298z2 <= 9.28
s222 - s225 + 10.301082z222z225z2 <= 9.28
s71 - s177 + 10.417686z71z177z1 <= 9.33
s144 - s240 + 10.364907z144z240z2 <= 9.35
s144 - s298 + 10.379814z144z298z2 <= 9.35
s144 - s225 + 10.368856z144z225z2 <= 9.35
s240 - s298 + 10.394907z240z298z2 <= 9.38
s240 - s225 + 10.386667z240z225z2 <= 9.38
s21 - s101 + 10.411082z21z101z1 <= 9.39
s298 - s225 + 10.413333z298z225z2 <= 9.40

x156x267x3 - 2z156z267z3 <= 0
x156x21x3 - 1z156z21z3 <= 0
x156x177x2 - 1z156z177z2 <= 0
x256x222x2 - 1z256z222z2 <= 0
x256x144x2 - 2z256z144z2 <= 0
x256x39x2 - 1z256z39z2 <= 0
x256x240x2 - 1z256z240z2 <= 0
x256x248x2 - 1z256z248z2 <= 0
x256x298x2 - 2z256z298z2 <= 0
x256x225x2 - 2z256z225z2 <= 0
x256x177x2 - 1z256z177z2 <= 0
x234x148x1 - 2z234z148z1 <= 0
x234x267x3 - 2z234z267z3 <= 0
x234x177x1 - 1z234z177z1 <= 0
x234x0x1 <= 1
x234x0x3 <= 1
x148x177x1 - 1z148z177z1 <= 0
x148x0x1 <= 2
x222x144x2 - 2z222z144z2 <= 0
x222x240x2 - 1z222z240z2 <= 0
x222x298x2 - 2z222z298z2 <= 0
x222x225x2 - 2z222z225z2 <= 0
x222x0x2 <= 1
x222x0x3 <= 1
x71x177x1 - 1z71z177z1 <= 0
x71x0x1 <= 1
x71x0x3 <= 1
x144x240x2 - 1z144z240z2 <= 0
x144x298x2 - 2z144z298z2 <= 0
x144x225x2 - 2z144z225z2 <= 0
x144x0x2 <= 2
x267x0x3 <= 2
x39x0x1 <= 1
x39x0x2 <= 1
x240x298x2 - 2z240z298z2 <= 0
x240x225x2 - 2z240z225z2 <= 0
x240x0x1 <= 1
x240x0x2 <= 1
x21x101x1 - 2z21z101z1 <= 0
x21x0x1 <= 1
x21x0x3 <= 1
x248x0x2 <= 1
x248x0x3 <= 1
x298x225x2 - 2z298z225z2 <= 0
x298x0x2 <= 2
x101x0x1 <= 2
x225x0x2 <= 2
x177x0x1 <= 1
x177x0x2 <= 1

s148 - 6.00z234z148z1 >= 0
s222 - 6.00z256z222z2 >= 0
s144 - 6.00z256z144z2 >= 0
s144 - 6.00z222z144z2 >= 0
s267 - 6.00z156z267z3 >= 0
s267 - 6.00z234z267z3 >= 0
s39 - 6.00z256z39z2 >= 0
s240 - 6.00z256z240z2 >= 0
s240 - 6.00z222z240z2 >= 0
s240 - 6.00z144z240z2 >= 0
s21 - 6.00z156z21z3 >= 0
s248 - 6.00z256z248z2 >= 0
s298 - 6.00z256z298z2 >= 0
s298 - 6.00z222z298z2 >= 0
s298 - 6.00z144z298z2 >= 0
s298 - 6.00z240z298z2 >= 0
s101 - 6.00z21z101z1 >= 0
s225 - 6.00z256z225z2 >= 0
s225 - 6.00z222z225z2 >= 0
s225 - 6.00z144z225z2 >= 0
s225 - 6.00z240z225z2 >= 0
s225 - 6.00z298z225z2 >= 0
s177 - 6.00z156z177z2 >= 0
s177 - 6.00z256z177z2 >= 0
s177 - 6.00z234z177z1 >= 0
s177 - 6.00z148z177z1 >= 0
s177 - 6.00z71z177z1 >= 0

Bounds
s220 = 8.661387
s167 = 8.693159
s124 = 8.763870
s300 = 8.977388
s156 = 8.178713
s9 = 8.681125
s270 = 8.809369
s183 = 8.763903
s47 = 9.146255
s296 = 8.694062
s256 = 7.340070
s194 = 8.457170
s187 = 8.476100
s96 = 8.672040
8.210000 <= s234 <= 9.210000
8.230000 <= s148 <= 9.230000
8.280000 <= s222 <= 9.280000
8.330000 <= s71 <= 9.330000
8.350000 <= s144 <= 9.350000
8.360000 <= s267 <= 9.360000
8.380000 <= s39 <= 9.380000
8.380000 <= s240 <= 9.380000
8.390000 <= s21 <= 9.390000
8.400000 <= s248 <= 9.400000
8.400000 <= s298 <= 9.400000
8.420000 <= s101 <= 9.420000
8.440000 <= s225 <= 9.440000
8.470000 <= s177 <= 9.470000

General




x156x267x3 x156x21x3 x156x177x2 





x256x222x2 x256x144x2 x256x39x2 x256x240x2 x256x248x2 x256x298x2 x256x225x2 x256x177x2 



x234x148x1 x234x267x3 x234x177x1 x234x0x1 x234x0x3 
x148x177x1 x148x0x1 
x222x144x2 x222x240x2 x222x298x2 x222x225x2 x222x0x2 x222x0x3 
x71x177x1 x71x0x1 x71x0x3 
x144x240x2 x144x298x2 x144x225x2 x144x0x2 
x267x0x3 
x39x0x1 x39x0x2 
x240x298x2 x240x225x2 x240x0x1 x240x0x2 
x21x101x1 x21x0x1 x21x0x3 
x248x0x2 x248x0x3 
x298x225x2 x298x0x2 
x101x0x1 
x225x0x2 
x177x0x1 x177x0x2 

Binaries
y234 y148 y222 y71 y144 y267 y39 y240 y21 y248 y298 y101 y225 y177 




z156z267z3 z156z21z3 z156z177z2 





z256z222z2 z256z144z2 z256z39z2 z256z240z2 z256z248z2 z256z298z2 z256z225z2 z256z177z2 



z234z148z1 z234z267z3 z234z177z1 
z148z177z1 
z222z144z2 z222z240z2 z222z298z2 z222z225z2 
z71z177z1 
z144z240z2 z144z298z2 z144z225z2 


z240z298z2 z240z225z2 
z21z101z1 

z298z225z2 




End